(declare-fun g () String)
(declare-fun d () String)
(declare-fun e () String)
(declare-fun b () String)
(declare-fun a () String)
(declare-fun h () String)
(assert (= (str.++ a (str.++ "c" "a")) (str.++ "g" (str.++ "h" e))))
(assert (= (str.++ d (str.++ "f" h)) (str.++ "b" (str.++ "d" "c"))))
(assert (= (str.++ "g" (str.++ e b)) (str.++ "g" (str.++ g b))))
(check-sat)
(get-model)